c ---- [ banner ] ------------------------------------------------------------
c
c Kissat SAT Solver
c 
c Copyright (c) 2021-2024 Armin Biere University of Freiburg
c Copyright (c) 2019-2021 Armin Biere Johannes Kepler University Linz
c 
c Version 4.0.1 43f02cf3e992cb44653b35e5cb26f93281552ae0
c gcc (Ubuntu 13.2.0-23ubuntu4) 13.2.0 -W -Wall -O3 -DNDEBUG
c Thu Sep 12 12:27:46 CEST 2024 Linux abryzen9 6.8.0-41-generic x86_64
c
c ---- [ parsing ] -----------------------------------------------------------
c
c opened and reading DIMACS file:
c
c   /data/artifact/AMulet2.0_artifact/exp4/cnf_compress2rs_64/64_64_U1_WT_HCA_Multgen_compress2rs.cnf
c
c parsed 'p cnf 36416 141613' header
c closing input after reading 2757304 bytes (3 MB)
c finished parsing after 0.02 seconds
c
c ---- [ options ] -----------------------------------------------------------
c
c --stable=0                       (different from default '1')
c
c ---- [ solving ] -----------------------------------------------------------
c
c  seconds switched rate     size/glue tier1  binary           remaining
c         MB reductions conflicts size  tier2     irredundant
c          level restarts redundant glue  trail           variables
c
c *  0.02 11 0 0 0  0 0   0   0 0.0 0 0 0 0 0% 29194 112417 36413 100%
c (  0.04 13 0 0 0  0 0   0   0 0.0 0 0 0 0 0% 29194 112417 36413 100%
c .  0.04 13 0 0 0  0 0   0   0 0.0 0 0 0 0 0% 29190 112417 36413 100%
c c  0.10 21 0 0 0  0 0   0   0 0.0 0 0 0 0 0% 36753 97530 32631 90%
c d  0.11 22 0 0 0  0 0   0   0 0.0 0 0 0 0 0% 29189 97530 32631 90%
c =  0.15 22 0 0 0  0 0   0   0 0.0 0 0 0 0 0% 29597 97530 32348 89%
c d  0.15 22 0 0 0  0 0   0   0 0.0 0 0 0 0 0% 29031 97530 32348 89%
c f  0.22 20 0 0 0  0 0   0   0 0.0 0 0 0 0 0% 31974 92837 34098 94%
c e  0.35 28 0 0 0  0 0   0   0 0.0 0 0 0 0 0% 10214 106922 23059 63%
c )  0.35 28 0 0 0  0 0   0   0 0.0 0 0 0 0 0% 10214 106922 23059 63%
c {  0.37 28 0 0 0  0 0   0   0 0.0 0 0 2 6 0% 10214 106922 23059 63%
c -  0.56 28 317 0 1 253 47 1000 716 4.6 20 4 3 8 15% 10314 106897 23059 63%
c -  0.76 28 359 0 2 438 48 2000 1511 5.6 30 5 2 9 20% 10341 106897 23059 63%
c c  0.83 22 408 0 2 442 45 2509 1913 5.0 25 5 2 10 19% 10376 106858 23050 63%
c d  0.83 22 408 0 2 442 45 2509 1910 5.0 25 5 2 10 19% 10358 106858 23050 63%
c u  0.84 22 408 0 2 442 45 2509 1429 5.0 25 5 2 10 19% 10370 106858 23050 63%
c v  0.86 22 408 0 2 442 45 2509 1141 5.0 25 5 2 10 19% 10373 106858 23050 63%
c w  0.86 22 408 0 2 442 45 2509 1130 5.0 25 5 2 10 19% 10373 106858 23050 63%
c x  0.88 22 408 0 2 442 45 2509 1130 5.0 25 5 2 10 19% 10470 106672 23050 63%
c =  0.92 22 408 0 2 442 45 2509 1130 5.0 25 5 2 10 19% 10710 106672 22930 63%
c
c  seconds   switched   rate       size/glue tier1     binary           remaining
c         MB  reductions conflicts       size  tier2       irredundant
c           level restarts    redundant    glue    trail           variables
c
c d  0.93 22 408 0 2 442 45 2509 1127 5.0 25 5 2 10 19% 10468 106672 22929 63%
c f  0.95 22 408 0 2 442 45 2509 1127 5.0 25 5 2 10 19% 11093 105455 23520 65%
c u  0.97 25 408 0 2 442 45 2509 1092 5.0 25 5 2 10 19% 11094 105455 23520 65%
c v  0.99 25 408 0 2 442 45 2509 1040 5.0 25 5 2 10 19% 11094 105455 23520 65%
c w  0.99 25 408 0 2 442 45 2509 1039 5.0 25 5 2 10 19% 11094 105455 23520 65%
c x  1.02 25 408 0 2 442 45 2509 1039 5.0 25 5 2 10 19% 11095 105283 23520 65%
c =  1.08 25 408 0 2 442 45 2509 1039 5.0 25 5 2 10 19% 11371 105283 23382 64%
c d  1.09 25 408 0 2 442 45 2509 1038 5.0 25 5 2 10 19% 11056 105283 23382 64%
c f  1.11 25 408 0 2 442 45 2509 1038 5.0 25 5 2 10 19% 11444 104701 23576 65%
c -  1.36 25 394 0 3 634 46 3414 1629 5.3 29 5 2 10 21% 11476 104695 23576 65%
c -  1.64 25 361 0 4 863 44 5146 2736 4.9 27 6 2 9 21% 11559 104691 23576 65%
c -  2.05 25 333 0 5 1107 41 7146 3990 4.8 27 6 2 9 24% 11623 104682 23576 65%
c c  2.22 25 331 0 5 1183 41 7713 4488 4.8 28 6 2 9 24% 11646 104610 23552 65%
c d  2.23 25 331 0 5 1183 41 7713 4485 4.8 28 6 2 9 24% 11596 104610 23551 65%
c u  2.24 25 331 0 5 1183 41 7713 3553 4.8 28 6 2 9 24% 11611 104610 23551 65%
c v  2.27 25 331 0 5 1183 41 7713 3034 4.8 28 6 2 9 24% 11614 104610 23551 65%
c w  2.31 25 331 0 5 1183 41 7713 3024 4.8 28 6 2 9 24% 11614 104610 23551 65%
c x  2.34 25 331 0 5 1183 41 7713 3024 4.8 28 6 2 9 24% 11633 100215 23551 65%
c =  2.46 25 331 0 5 1183 41 7713 3024 4.8 28 6 2 9 24% 12835 100215 22950 63%
c d  2.46 25 331 0 5 1183 41 7713 3008 4.8 28 6 2 9 24% 11506 100212 22948 63%
c
c  seconds   switched    rate       size/glue tier1    binary           remaining
c         MB  reductions  conflicts       size  tier2      irredundant
c           level  restarts    redundant    glue   trail           variables
c
c t  2.48 25 331 0 5 1183 41 7713 3008 4.8 28 6 2 9 24% 11494 100212 22948 63%
c f  2.52 25 331 0 5 1183 41 7713 3008 4.8 28 6 2 9 24% 13444 97287 23923 66%
c u  2.58 25 331 0 5 1183 41 7713 2703 4.8 28 6 2 9 24% 13447 97287 23923 66%
c v  2.60 25 331 0 5 1183 41 7713 2613 4.8 28 6 2 9 24% 13448 97287 23923 66%
c w  2.64 25 331 0 5 1183 41 7713 2605 4.8 28 6 2 9 24% 13448 97287 23923 66%
c x  2.68 25 331 0 5 1183 41 7713 2605 4.8 28 6 2 9 24% 13516 94213 23923 66%
c =  2.80 25 331 0 5 1183 41 7713 2605 4.8 28 6 2 9 24% 14102 94213 23630 65%
c d  2.81 25 331 0 5 1183 41 7713 2593 4.8 28 6 2 9 24% 13451 94213 23630 65%
c t  2.82 25 331 0 5 1183 41 7713 2593 4.8 28 6 2 9 24% 13409 94213 23630 65%
c -  3.08 25 349 0 6 1313 39 9382 3590 4.5 25 6 2 9 25% 13494 94212 23630 65%
c o  3.12 25 369 0 6 1338 38 10081 4224 4.5 25 5 2 9 24% 13519 94212 23630 65%
c -  3.41 25 357 0 7 1491 37 11832 5158 4.6 26 6 2 7 23% 13587 94210 23630 65%
c s  3.50 25 362 0 7 1527 37 12511 5740 4.6 26 6 2 7 23% 13626 93254 23630 65%
c e  3.59 25 362 0 7 1527 37 12511 5740 4.6 26 6 2 7 23% 11393 94817 22067 61%
c s  3.60 25 362 0 7 1527 37 12511 5740 4.6 26 6 2 7 23% 11400 94149 22067 61%
c e  3.61 25 362 0 7 1527 37 12511 5740 4.6 26 6 2 7 23% 11371 94178 22056 61%
c ^  3.61 25 362 0 7 1527 37 12511 5740 4.6 26 6 2 7 23% 11371 94178 22056 61%
c -  3.80 25 370 0 8 1628 35 14477 6090 4.5 25 6 2 7 22% 11436 94164 22056 61%
c d  4.00 25 368 0 8 1757 34 15790 7149 4.4 26 6 2 7 22% 11309 94164 21957 60%
c u  4.03 25 368 0 8 1757 34 15790 5464 4.4 26 6 2 7 22% 11334 94164 21957 60%
c
c  seconds   switched    rate        size/glue tier1    binary          remaining
c         MB  reductions   conflicts       size  tier2      irredundant
c           level  restarts     redundant    glue   trail          variables
c
c v  4.05 25 368 0 8 1757 34 15790 4790 4.4 26 6 2 7 22% 11336 94164 21957 60%
c w  4.09 25 368 0 8 1757 34 15790 4739 4.4 26 6 2 7 22% 11336 94164 21957 60%
c x  4.11 25 368 0 8 1757 34 15790 4739 4.4 26 6 2 7 22% 11343 93979 21957 60%
c =  4.23 25 368 0 8 1757 34 15790 4739 4.4 26 6 2 7 22% 12711 93979 21273 58%
c d  4.24 25 368 0 8 1757 34 15790 4722 4.4 26 6 2 7 22% 11014 93979 21272 58%
c t  4.26 25 368 0 8 1757 34 15790 4722 4.4 26 6 2 7 22% 11003 93979 21272 58%
c f  4.31 25 368 0 8 1757 34 15790 4722 4.4 26 6 2 7 22% 11015 93946 21282 58%
c c  4.37 25 368 0 8 1757 34 15790 4721 4.4 26 6 2 7 22% 11019 93942 21281 58%
c d  4.38 25 368 0 8 1757 34 15790 4721 4.4 26 6 2 7 22% 11017 93942 21281 58%
c u  4.39 25 368 0 8 1757 34 15790 4399 4.4 26 6 2 7 22% 11021 93942 21281 58%
c v  4.41 25 368 0 8 1757 34 15790 4272 4.4 26 6 2 7 22% 11022 93942 21281 58%
c w  4.46 25 368 0 8 1757 34 15790 4254 4.4 26 6 2 7 22% 11022 93942 21281 58%
c x  4.48 25 368 0 8 1757 34 15790 4254 4.4 26 6 2 7 22% 11043 93240 21281 58%
c =  4.60 25 368 0 8 1757 34 15790 4254 4.4 26 6 2 7 22% 11873 93240 20866 57%
c d  4.60 25 368 0 8 1757 34 15790 4239 4.4 26 6 2 7 22% 10862 93240 20866 57%
c t  4.61 25 368 0 8 1757 34 15790 4239 4.4 26 6 2 7 22% 10854 93240 20866 57%
c f  4.63 25 368 0 8 1757 34 15790 4239 4.4 26 6 2 7 22% 10856 93214 20875 57%
c -  5.02 25 370 0 9 1973 35 17305 4973 4.4 27 6 2 7 23% 10880 93214 20875 57%
c -  5.55 25 377 0 10 2267 35 20307 6783 4.1 28 7 2 7 23% 10940 93213 20875 57%
c o  5.57 25 375 0 10 2268 35 20454 6906 4.1 28 7 2 7 23% 10946 93213 20875 57%
c
c  seconds   switched     rate        size/glue tier1    binary          remaining
c         MB   reductions   conflicts       size  tier2      irredundant
c           level   restarts     redundant    glue   trail          variables
c
c -  5.99 25 371 0 11 2487 34 23469 8507 4.2 29 7 2 6 23% 11010 93211 20875 57%
c s  6.26 25 367 0 11 2658 34 25012 9940 4.1 28 7 2 6 23% 11030 92384 20875 57%
c e  6.35 25 367 0 11 2658 34 25012 9940 4.1 28 7 2 6 23% 9965 95765 18175 50%
c s  6.37 25 367 0 11 2658 34 25012 9940 4.1 28 7 2 6 23% 10018 91786 18175 50%
c e  6.40 25 367 0 11 2658 34 25012 9940 4.1 28 7 2 6 23% 9997 91828 18151 50%
c ^  6.40 25 367 0 11 2658 34 25012 9940 4.1 28 7 2 6 23% 9997 91828 18151 50%
c -  6.60 25 356 0 12 2712 33 26785 8333 4.0 27 7 2 6 23% 10017 91828 18151 50%
c d  6.62 25 354 0 12 2714 33 26916 8432 4.0 27 7 2 6 23% 9934 91828 18096 50%
c u  6.65 25 354 0 12 2714 33 26916 6896 4.0 27 7 2 6 23% 9944 91828 18096 50%
c v  6.67 25 354 0 12 2714 33 26916 6016 4.0 27 7 2 6 23% 9946 91828 18096 50%
c w  6.68 25 354 0 12 2714 33 26916 6010 4.0 27 7 2 6 23% 9946 91828 18096 50%
c x  6.76 25 354 0 12 2714 33 26916 6009 4.0 27 7 2 6 23% 9998 89003 18096 50%
c =  6.96 25 354 0 12 2714 33 26916 6009 4.0 27 7 2 6 23% 12476 89003 16857 46%
c d  6.96 25 354 0 12 2714 33 26916 5766 4.0 27 7 2 6 23% 9828 89003 16857 46%
c t  6.98 25 354 0 12 2714 33 26916 5766 4.0 27 7 2 6 23% 9807 89003 16857 46%
c f  7.04 25 354 0 12 2714 33 26916 5766 4.0 27 7 2 6 23% 9804 88904 16878 46%
c u  7.06 25 354 0 12 2714 33 26916 5201 4.0 27 7 2 6 23% 9809 88904 16878 46%
c v  7.09 25 354 0 12 2714 33 26916 5057 4.0 27 7 2 6 23% 9809 88904 16878 46%
c w  7.10 25 354 0 12 2714 33 26916 5051 4.0 27 7 2 6 23% 9809 88904 16878 46%
c x  7.23 25 354 0 12 2714 33 26916 5051 4.0 27 7 2 6 23% 9824 80440 16878 46%
c
c  seconds   switched     rate        size/glue tier1    binary          remaining
c         MB   reductions   conflicts       size  tier2      irredundant
c           level   restarts     redundant    glue   trail          variables
c
c =  7.43 25 354 0 12 2714 33 26916 5051 4.0 27 7 2 6 23% 10392 80440 16594 46%
c d  7.43 25 354 0 12 2714 33 26916 5042 4.0 27 7 2 6 23% 9819 80440 16594 46%
c t  7.44 25 354 0 12 2714 33 26916 5042 4.0 27 7 2 6 23% 9788 80440 16594 46%
c f  7.46 25 354 0 12 2714 33 26916 5042 4.0 27 7 2 6 23% 9792 80420 16599 46%
c -  7.69 25 324 0 13 2804 30 30249 6999 3.8 25 7 2 6 23% 9830 80419 16599 46%
c -  8.05 25 311 0 14 2998 29 33854 9206 3.7 24 7 2 6 23% 9870 80419 16599 46%
c -  8.63 25 291 0 15 3335 28 37596 11093 3.6 25 7 2 6 24% 9903 80417 16599 46%
c o  8.90 25 283 0 15 3467 27 40455 13569 3.5 24 7 2 6 24% 9942 80417 16599 46%
c c  9.04 25 285 0 15 3538 27 41247 14272 3.5 24 7 2 6 24% 9999 80174 16531 45%
c d  9.04 25 285 0 15 3538 27 41247 14035 3.5 24 7 2 6 24% 9812 80174 16497 45%
c u  9.08 25 285 0 15 3538 27 41247 11961 3.5 24 7 2 6 24% 9831 80174 16497 45%
c v  9.12 25 285 0 15 3538 27 41247 11050 3.5 24 7 2 6 24% 9833 80174 16497 45%
c w  9.14 25 285 0 15 3538 27 41247 11050 3.5 24 7 2 6 24% 9833 80174 16497 45%
c x  9.18 26 285 0 15 3538 27 41247 11050 3.5 24 7 2 6 24% 9833 78516 16497 45%
c =  9.36 26 285 0 15 3538 27 41247 11050 3.5 24 7 2 6 24% 11047 78516 15890 44%
c d  9.36 26 285 0 15 3538 27 41247 10768 3.5 24 7 2 6 24% 9700 78516 15890 44%
c t  9.38 26 285 0 15 3538 27 41247 10768 3.5 24 7 2 6 24% 9693 78516 15890 44%
c u  9.43 26 285 0 15 3538 27 41247 10062 3.5 24 7 2 6 24% 9694 78516 15890 44%
c v  9.47 26 285 0 15 3538 27 41247 9440 3.5 24 7 2 6 24% 9696 78516 15890 44%
c w  9.52 26 285 0 15 3538 27 41247 9432 3.5 24 7 2 6 24% 9696 78516 15890 44%
c
c  seconds   switched     rate        size/glue tier1    binary         remaining
c         MB   reductions   conflicts       size  tier2     irredundant
c           level   restarts     redundant    glue   trail         variables
c
c x  9.57 26 285 0 15 3538 27 41247 9432 3.5 24 7 2 6 24% 9696 75888 15890 44%
c =  9.72 26 285 0 15 3538 27 41247 9432 3.5 24 7 2 6 24% 10104 75888 15686 43%
c d  9.73 26 285 0 15 3538 27 41247 9308 3.5 24 7 2 6 24% 9686 75888 15686 43%
c t  9.74 26 285 0 15 3538 27 41247 9308 3.5 24 7 2 6 24% 9683 75888 15686 43%
c f  9.75 26 285 0 15 3538 27 41247 9308 3.5 24 7 2 6 24% 9684 75881 15688 43%
c -  9.82 26 284 0 16 3579 27 41470 8337 3.5 24 7 2 6 24% 9685 75881 15688 43%
c - 10.37 26 273 0 17 3862 26 45471 10485 3.5 24 7 2 6 24% 9710 75881 15688 43%
c - 10.86 26 264 0 18 4171 26 49596 11391 3.4 24 7 1 5 24% 9752 75880 15688 43%
c s 11.04 26 259 0 18 4263 25 52112 13540 3.4 24 7 1 5 24% 9780 74233 15688 43%
c e 11.12 26 259 0 18 4263 25 52112 13540 3.4 24 7 1 5 24% 8272 77040 14522 40%
c s 11.13 26 259 0 18 4263 25 52112 13540 3.4 24 7 1 5 24% 8295 76383 14522 40%
c e 11.14 26 259 0 18 4263 25 52112 13540 3.4 24 7 1 5 24% 8286 76406 14508 40%
c ^ 11.14 26 259 0 18 4263 25 52112 13540 3.4 24 7 1 5 24% 8286 76406 14508 40%
c - 11.32 26 254 0 19 4335 25 53839 10370 3.3 23 7 1 6 24% 8295 76403 14508 40%
c - 11.88 26 242 0 20 4666 24 58197 11874 3.2 23 7 1 6 25% 8331 76396 14508 40%
c c 12.00 26 240 0 20 4697 24 58889 12486 3.2 23 7 1 6 25% 8370 76229 14476 40%
c d 12.00 26 240 0 20 4697 24 58889 12408 3.2 23 7 1 6 25% 8306 76229 14476 40%
c u 12.02 26 240 0 20 4697 24 58889 11268 3.2 23 7 1 6 25% 8318 76229 14476 40%
c v 12.07 26 240 0 20 4697 24 58889 9214 3.2 23 7 1 6 25% 8325 76229 14476 40%
c w 12.09 26 240 0 20 4697 24 58889 9174 3.2 23 7 1 6 25% 8326 76229 14476 40%
c
c  seconds   switched     rate        size/glue tier1    binary         remaining
c         MB   reductions   conflicts       size  tier2     irredundant
c           level   restarts     redundant    glue   trail         variables
c
c x 12.16 26 240 0 20 4697 24 58889 9173 3.2 23 7 1 6 25% 8330 75784 14476 40%
c d 12.38 26 240 0 20 4697 24 58889 9171 3.2 23 7 1 6 25% 8320 75784 14471 40%
c t 12.39 26 240 0 20 4697 24 58889 9171 3.2 23 7 1 6 25% 8301 75784 14471 40%
c f 12.43 26 240 0 20 4697 24 58889 9171 3.2 23 7 1 6 25% 8321 75690 14485 40%
c c 12.46 26 240 0 20 4697 24 58889 9154 3.2 23 7 1 6 25% 8328 75658 14481 40%
c d 12.47 26 240 0 20 4697 24 58889 9154 3.2 23 7 1 6 25% 8320 75658 14481 40%
c u 12.48 26 240 0 20 4697 24 58889 9018 3.2 23 7 1 6 25% 8324 75658 14481 40%
c v 12.51 26 240 0 20 4697 24 58889 8697 3.2 23 7 1 6 25% 8326 75658 14481 40%
c w 12.53 26 240 0 20 4697 24 58889 8677 3.2 23 7 1 6 25% 8326 75658 14481 40%
c x 12.63 26 240 0 20 4697 24 58889 8668 3.2 23 7 1 6 25% 8347 74365 14481 40%
c d 12.64 26 240 0 20 4697 24 58889 8666 3.2 23 7 1 6 25% 8343 74365 14479 40%
c t 12.66 26 240 0 20 4697 24 58889 8666 3.2 23 7 1 6 25% 8337 74365 14479 40%
c - 13.17 26 235 0 21 4952 23 62669 10050 3.1 22 7 1 6 25% 8361 74361 14479 40%
c - 13.73 26 226 0 22 5292 23 67251 13102 3.0 21 7 2 6 26% 8377 74360 14479 40%
c o 14.09 26 221 0 22 5485 22 70491 15976 3.0 21 7 2 6 26% 8398 74360 14479 40%
c - 14.26 26 219 0 23 5582 22 71942 15323 3.0 21 7 2 6 26% 8405 74359 14479 40%
c - 14.78 26 217 0 24 5925 22 76737 15642 3.0 21 7 1 6 26% 8474 74357 14479 40%
c d 15.24 26 215 0 24 6236 22 79965 18323 3.0 21 7 1 6 26% 8420 74356 14434 40%
c u 15.29 26 215 0 24 6236 22 79965 16741 3.0 21 7 1 6 26% 8442 74356 14434 40%
c v 15.38 26 215 0 24 6236 22 79965 13619 3.0 21 7 1 6 26% 8450 74356 14434 40%
c
c  seconds   switched     rate         size/glue tier1    binary         remaining
c         MB   reductions   conflicts        size  tier2     irredundant
c           level   restarts      redundant    glue   trail         variables
c
c w 15.45 26 215 0 24 6236 22 79965 13610 3.0 21 7 1 6 26% 8450 74356 14434 40%
c x 15.54 26 215 0 24 6236 22 79965 13609 3.0 21 7 1 6 26% 8458 74210 14434 40%
c = 15.71 26 215 0 24 6236 22 79965 13609 3.0 21 7 1 6 26% 8836 74210 14245 39%
c d 15.71 26 215 0 24 6236 22 79965 13418 3.0 21 7 1 6 26% 8392 74210 14238 39%
c t 15.73 26 215 0 24 6236 22 79965 13418 3.0 21 7 1 6 26% 8379 74210 14238 39%
c c 15.77 26 215 0 24 6236 22 79965 13418 3.0 21 7 1 6 26% 8392 74154 14231 39%
c d 15.78 26 215 0 24 6236 22 79965 13410 3.0 21 7 1 6 26% 8378 74154 14231 39%
c u 15.80 26 215 0 24 6236 22 79965 12972 3.0 21 7 1 6 26% 8379 74154 14231 39%
c v 15.85 26 215 0 24 6236 22 79965 12345 3.0 21 7 1 6 26% 8386 74154 14231 39%
c w 15.97 26 215 0 24 6236 22 79965 12199 3.0 21 7 1 6 26% 8386 74154 14231 39%
c = 16.27 26 215 0 24 6236 22 79965 12199 3.0 21 7 1 6 26% 8942 74119 13950 38%
c d 16.27 26 215 0 24 6236 22 79965 12063 3.0 21 7 1 6 26% 8348 74119 13950 38%
c t 16.28 26 215 0 24 6236 22 79965 12063 3.0 21 7 1 6 26% 8320 74119 13950 38%
c f 16.30 26 215 0 24 6236 22 79965 12063 3.0 21 7 1 6 26% 8322 74106 13952 38%
c - 16.48 26 212 0 25 6338 22 81635 11329 2.9 21 7 1 6 26% 8328 74106 13952 38%
c - 16.86 26 205 0 26 6587 21 86636 13233 2.9 20 7 1 6 25% 8381 74104 13952 38%
c - 17.56 26 201 0 27 7073 21 91735 15118 2.8 20 7 1 6 26% 8419 74103 13952 38%
c i 18.19 26 197 0 27 7567 21 95655 18680 2.8 20 7 1 6 26% 8460 74101 13951 38%
c s 18.22 26 197 0 27 7578 21 95802 18805 2.8 20 7 1 6 26% 8464 72407 13951 38%
c e 18.34 26 197 0 27 7578 21 95802 18805 2.8 20 7 1 6 26% 5671 79845 12373 34%
c
c  seconds   switched     rate         size/glue tier1    binary         remaining
c         MB   reductions   conflicts        size  tier2     irredundant
c           level   restarts      redundant    glue   trail         variables
c
c 2 18.34 26 197 0 27 7578 21 95802 18805 2.8 20 7 1 6 26% 5668 79845 12373 34%
c s 18.35 26 197 0 27 7578 21 95802 18805 2.8 20 7 1 6 26% 5695 79172 12373 34%
c e 18.37 26 197 0 27 7578 21 95802 18805 2.8 20 7 1 6 26% 5663 79349 12321 34%
c ^ 18.37 26 197 0 27 7578 21 95802 18805 2.8 20 7 1 6 26% 5663 79349 12321 34%
c - 18.51 26 196 0 28 7695 21 96932 12903 2.8 20 7 1 5 26% 5674 79348 12321 34%
c - 19.06 26 193 0 29 8126 21 102223 15080 2.8 20 7 1 5 25% 5720 79347 12321 34%
c d 19.46 26 192 0 29 8440 21 104597 17161 2.8 20 7 1 5 26% 5672 79347 12288 34%
c u 19.49 26 192 0 29 8440 21 104597 15250 2.8 20 7 1 5 26% 5682 79347 12288 34%
c v 19.54 26 192 0 29 8440 21 104597 12700 2.8 20 7 1 5 26% 5690 79347 12288 34%
c w 19.66 26 192 0 29 8440 21 104597 12649 2.8 20 7 1 5 26% 5690 79347 12288 34%
c x 19.71 26 192 0 29 8440 21 104597 12649 2.8 20 7 1 5 26% 5690 79259 12288 34%
c = 20.06 26 192 0 29 8440 21 104597 12649 2.8 20 7 1 5 26% 6372 79215 11943 33%
c d 20.07 26 192 0 29 8440 21 104597 12353 2.8 20 7 1 5 26% 5623 79215 11943 33%
c t 20.08 26 192 0 29 8440 21 104597 12353 2.8 20 7 1 5 26% 5596 79215 11943 33%
c f 20.15 26 192 0 29 8440 21 104597 12353 2.8 20 7 1 5 26% 5630 79015 11961 33%
c u 20.18 26 192 0 29 8440 21 104597 11759 2.8 20 7 1 5 26% 5634 79015 11961 33%
c v 20.21 26 192 0 29 8440 21 104597 11288 2.8 20 7 1 5 26% 5635 79015 11961 33%
c w 20.37 26 192 0 29 8440 21 104597 10974 2.8 20 7 1 5 26% 5635 79015 11961 33%
c = 20.73 26 192 0 29 8440 21 104597 10974 2.8 20 7 1 5 26% 5689 79005 11933 33%
c d 20.74 26 192 0 29 8440 21 104597 10966 2.8 20 7 1 5 26% 5635 79005 11933 33%
c
c  seconds   switched     rate          size/glue tier1    binary         remaining
c         MB   reductions   conflicts         size  tier2     irredundant
c           level   restarts       redundant    glue   trail         variables
c
c t 20.75 26 192 0 29 8440 21 104597 10966 2.8 20 7 1 5 26% 5632 79005 11933 33%
c f 20.75 26 192 0 29 8440 21 104597 10966 2.8 20 7 1 5 26% 5634 78994 11934 33%
c - 21.04 26 189 0 30 8636 21 107609 11606 2.8 20 7 1 5 26% 5645 78993 11934 33%
c o 21.36 26 186 0 30 8901 21 110511 14174 2.7 20 7 1 5 26% 5656 78991 11934 33%
c - 21.64 26 184 0 31 9109 21 113086 14135 2.7 20 7 1 5 26% 5667 78990 11934 33%
c - 22.37 26 181 0 32 9716 21 118653 16151 2.7 20 7 1 5 26% 5691 78989 11934 33%
c - 23.28 26 177 0 33 10252 21 124309 17920 2.7 20 7 1 5 26% 5730 78989 11934 33%
c - 24.02 28 176 0 34 10721 21 130053 19298 2.8 20 7 1 5 26% 5769 78988 11934 33%
c c 24.29 28 174 0 34 10856 21 132849 21784 2.8 20 7 1 5 25% 5803 78784 11879 33%
c d 24.30 28 174 0 34 10856 21 132849 21528 2.8 20 7 1 5 25% 5693 78784 11879 33%
c u 24.35 28 174 0 34 10856 21 132849 19065 2.8 20 7 1 5 25% 5704 78784 11879 33%
c v 24.42 28 174 0 34 10856 21 132849 15717 2.8 20 7 1 5 25% 5709 78784 11879 33%
c w 24.53 28 174 0 34 10856 21 132849 15331 2.8 20 7 1 5 25% 5710 78784 11879 33%
c = 24.91 28 174 0 34 10856 21 132849 15331 2.8 20 7 1 5 25% 5796 78784 11836 33%
c d 24.91 28 174 0 34 10856 21 132849 15258 2.8 20 7 1 5 25% 5696 78784 11833 32%
c t 24.92 28 174 0 34 10856 21 132849 15258 2.8 20 7 1 5 25% 5691 78784 11833 32%
c u 24.98 28 174 0 34 10856 21 132849 14773 2.8 20 7 1 5 25% 5694 78784 11833 32%
c v 25.03 28 174 0 34 10856 21 132849 14109 2.8 20 7 1 5 25% 5694 78784 11833 32%
c w 25.17 28 174 0 34 10856 21 132849 13963 2.8 20 7 1 5 25% 5694 78784 11833 32%
c x 25.34 28 174 0 34 10856 21 132849 13932 2.8 20 7 1 5 25% 5725 73961 11833 32%
c
c  seconds   switched      rate          size/glue tier1    binary         remaining
c         MB   reductions    conflicts         size  tier2     irredundant
c           level   restarts        redundant    glue   trail         variables
c
c = 25.88 28 174 0 34 10856 21 132849 13932 2.8 20 7 1 5 25% 5775 73961 11808 32%
c d 25.89 28 174 0 34 10856 21 132849 13878 2.8 20 7 1 5 25% 5716 73961 11808 32%
c t 25.90 28 174 0 34 10856 21 132849 13878 2.8 20 7 1 5 25% 5706 73961 11808 32%
c - 26.33 28 172 0 35 11107 21 135883 14168 2.8 20 7 1 5 26% 5714 73961 11808 32%
c - 27.31 28 170 0 36 11683 21 141800 16992 2.8 21 7 1 5 26% 5724 73960 11808 32%
c - 28.07 28 168 0 37 12124 20 147800 19158 2.8 21 8 1 5 26% 5743 73960 11808 32%
c i 28.07 28 167 0 37 12124 20 148878 19975 2.8 21 7 1 5 26% 5780 73958 11807 32%
c i 28.46 28 166 0 37 12358 20 152364 22919 2.8 21 7 1 5 26% 5813 73958 11806 32%
c i 28.59 28 166 0 37 12437 20 153106 23599 2.8 21 7 1 5 26% 5817 73958 11805 32%
c i 28.59 28 166 0 37 12438 20 153121 23599 2.8 21 7 1 5 26% 5820 73958 11804 32%
c i 28.59 28 166 0 37 12438 20 153149 23612 2.8 21 7 1 5 26% 5823 73958 11802 32%
c - 28.71 28 166 0 38 12526 20 153884 20321 2.8 21 7 1 5 26% 5798 73958 11802 32%
c i 28.96 28 166 0 38 12680 20 155702 21988 2.8 21 8 1 5 26% 5801 73958 11800 32%
c i 29.10 28 165 0 38 12761 20 156344 22587 2.8 21 8 1 5 26% 5803 73957 11797 32%
c s 29.32 28 165 0 38 12897 20 157883 23919 2.8 21 8 1 5 26% 5825 73759 11797 32%
c e 29.43 28 165 0 38 12897 20 157883 23919 2.8 21 8 1 5 26% 3180 86507 10016 28%
c 2 29.43 28 165 0 38 12897 20 157883 23919 2.8 21 8 1 5 26% 3175 86507 10016 28%
c s 29.46 28 165 0 38 12897 20 157883 23919 2.8 21 8 1 5 26% 3194 85282 10016 28%
c e 29.48 28 165 0 38 12897 20 157883 23919 2.8 21 8 1 5 26% 3134 85567 9954 27%
c ^ 29.48 28 165 0 38 12897 20 157883 23919 2.8 21 8 1 5 26% 3134 85567 9954 27%
c
c  seconds   switched      rate          size/glue tier1    binary        remaining
c         MB   reductions    conflicts         size  tier2     irredundant
c           level   restarts        redundant    glue   trail        variables
c
c - 29.76 28 164 0 39 13077 20 160049 14793 2.8 21 8 1 5 26% 3133 85567 9954 27%
c o 29.82 28 163 0 39 13128 20 160514 15233 2.8 21 8 1 5 26% 3133 85567 9954 27%
c i 29.90 28 163 0 39 13194 20 161264 15853 2.8 21 8 1 5 26% 3151 85567 9953 27%
c c 30.22 28 161 0 39 13391 20 164855 18989 2.7 21 8 1 5 26% 3185 85448 9927 27%
c d 30.22 28 161 0 39 13391 20 164855 18817 2.7 21 8 1 5 26% 3137 85444 9927 27%
c d 30.22 28 161 0 39 13391 20 164855 18805 2.7 21 8 1 5 26% 3133 85444 9925 27%
c u 30.26 28 161 0 39 13391 20 164855 16744 2.7 21 8 1 5 26% 3147 85444 9925 27%
c v 30.33 28 161 0 39 13391 20 164855 13854 2.7 21 8 1 5 26% 3150 85444 9925 27%
c w 30.50 28 161 0 39 13391 20 164855 13363 2.7 21 8 1 5 26% 3151 85444 9925 27%
c = 30.99 28 161 0 39 13391 20 164855 13363 2.7 21 8 1 5 26% 3181 85424 9908 27%
c d 30.99 28 161 0 39 13391 20 164855 13296 2.7 21 8 1 5 26% 3142 85424 9908 27%
c t 31.00 28 161 0 39 13391 20 164855 13296 2.7 21 8 1 5 26% 3121 85424 9908 27%
c f 31.10 28 161 0 39 13391 20 164855 13296 2.7 21 8 1 5 26% 3161 84969 9930 27%
c u 31.17 28 161 0 39 13391 20 164855 12824 2.7 21 8 1 5 26% 3170 84969 9930 27%
c v 31.20 28 161 0 39 13391 20 164855 12268 2.7 21 8 1 5 26% 3171 84969 9930 27%
c w 31.34 28 161 0 39 13391 20 164855 12083 2.7 21 8 1 5 26% 3171 84969 9930 27%
c x 31.42 28 161 0 39 13391 20 164855 12083 2.7 21 8 1 5 26% 3172 84926 9930 27%
c = 31.87 28 161 0 39 13391 20 164855 12083 2.7 21 8 1 5 26% 3304 84856 9856 27%
c d 31.88 28 161 0 39 13391 20 164855 11803 2.7 21 8 1 5 26% 3164 84855 9856 27%
c t 31.88 28 161 0 39 13391 20 164855 11803 2.7 21 8 1 5 26% 3156 84855 9856 27%
c
c  seconds   switched      rate          size/glue tier1    binary        remaining
c         MB   reductions    conflicts         size  tier2     irredundant
c           level   restarts        redundant    glue   trail        variables
c
c - 32.03 28 160 0 40 13476 20 166294 11264 2.7 21 8 1 5 26% 3144 84855 9856 27%
c i 32.06 28 160 0 40 13496 20 166804 11644 2.7 21 8 1 5 26% 3153 84855 9855 27%
c i 32.27 28 157 0 40 13634 19 170105 14476 2.7 20 8 1 5 25% 3166 84854 9854 27%
c - 32.41 28 156 0 41 13739 19 172619 14055 2.7 20 7 1 5 25% 3166 84849 9854 27%
c i 32.41 28 156 0 41 13739 19 172819 14162 2.7 20 7 1 5 25% 3176 84849 9853 27%
c i 32.66 28 153 0 41 13959 18 176931 17887 2.7 20 7 1 5 25% 3190 84848 9852 27%
c i 32.72 28 153 0 41 13998 18 177412 18324 2.7 20 7 1 5 25% 3193 84848 9849 27%
c i 32.72 28 153 0 41 14000 18 177420 18328 2.7 20 7 1 5 25% 3195 84848 9848 27%
c i 32.75 28 152 0 41 14044 18 177823 18696 2.7 20 7 1 5 25% 3200 84848 9845 27%
c i 32.78 28 152 0 41 14093 18 178288 19128 2.7 20 7 1 5 25% 3200 84848 9844 27%
c i 32.79 28 152 0 41 14093 18 178309 19131 2.7 20 7 1 5 25% 3204 84848 9843 27%
c i 32.79 28 151 0 41 14103 18 178718 19454 2.7 20 7 1 5 25% 3209 84847 9842 27%
c i 32.80 28 151 0 41 14112 18 178820 19541 2.6 20 7 1 5 25% 3210 84847 9840 27%
c - 32.80 28 151 0 42 14123 18 179023 15814 2.6 20 7 1 5 25% 3168 84847 9840 27%
c i 32.91 28 146 0 42 14283 18 183296 19431 2.6 20 7 1 5 24% 3216 84842 9839 27%
c i 32.95 28 145 0 42 14348 18 184409 20397 2.6 20 7 1 5 24% 3227 84842 9838 27%
c i 32.97 28 143 0 42 14389 17 185319 21140 2.6 20 7 1 5 23% 3231 84842 9837 27%
c - 32.99 28 143 0 43 14396 17 185504 17161 2.6 20 7 1 5 23% 3216 84842 9837 27%
c i 33.00 28 142 0 43 14410 17 186341 17881 2.6 19 7 1 5 23% 3223 84842 9798 27%
c i 33.00 28 142 0 43 14410 17 186356 17892 2.6 19 7 1 5 23% 3224 84842 9790 27%
c
c  seconds   switched      rate          size/glue tier1    binary        remaining
c         MB   reductions    conflicts         size  tier2     irredundant
c           level   restarts        redundant    glue   trail        variables
c
c } 33.00 28 142 0 43 14410 17 186358 17892 2.6 19 7 1 5 23% 3224 84842 9784 27%
c 0 33.00 28 142 0 43 14410 17 186358 17892 2.6 19 7 1 5 23% 3224 84842 9784 27%
c
c ---- [ result ] ------------------------------------------------------------
c
s UNSATISFIABLE
c
c ---- [ profiling ] ---------------------------------------------------------
c
c          22.18   67.22 %  search
c          22.18   67.22 %  focused
c          10.45   31.65 %  simplify
c           9.88   29.95 %  probe
c           4.61   13.98 %  sweep
c           3.57   10.81 %  vivify
c           0.74    2.25 %  eliminate
c           0.66    2.00 %  factor
c           0.47    1.44 %  congruence
c           0.41    1.24 %  substitute
c           0.31    0.95 %  preprocess
c           0.19    0.58 %  reduce
c           0.13    0.39 %  subsume
c           0.13    0.39 %  fastel
c           0.11    0.34 %  transitive
c           0.05    0.14 %  backbone
c           0.04    0.11 %  lucky
c           0.02    0.07 %  parse
c =============================================
c          33.00  100.00 %  total
c
c ---- [ statistics ] --------------------------------------------------------
c
c chronological:                         5883                3 %  conflicts
c conflicts:                           186358             5646.51 per second
c congruent:                             4008               11 %  variables
c decisions:                          3459841               18.57 per conflict
c eliminated:                           19989               55 %  variables
c factored:                              3614               10 %  variables
c fast_eliminated:                      11039               55 %  eliminated
c fast_strengthened:                        7                0 %  per strengthened
c fast_subsumed:                           70                1 %  per subsumed
c iterations:                              27                0 %  variables
c propagations:                     149618281          4533325    per second
c reductions:                              43             4334    interval
c reordered:                                6            31060    interval
c restarts:                             14410               13    interval
c strengthened:                          5774                0 %  checks
c substituted:                          10150               28 %  variables
c subsumed:                             12406                0 %  checks
c switched:                                 0                0    interval
c vivified:                             86823               13 %  checks
c
c ---- [ glue usage ] --------------------------------------------------------
c
c focused glue 1 used 296233 clauses 58.58% accumulated 58.58% tier1
c focused glue 2 used 101944 clauses 20.16% accumulated 78.74%
c focused glue 3 used  32372 clauses  6.40% accumulated 85.14%
c focused glue 4 used  19031 clauses  3.76% accumulated 88.91%
c focused glue 5 used  12436 clauses  2.46% accumulated 91.37% tier2
c
c ---- [ resources ] ---------------------------------------------------------
c
c maximum-resident-set-size:         29458432 bytes         28 MB
c process-time:                            33s              33.00 seconds
c
c ---- [ shutting down ] -----------------------------------------------------
c
c exit 20
